p tdp 20 86
1 2
1 4
1 5
1 6
1 10
1 11
1 13
1 15
1 16
1 17
1 19
1 20
2 5
2 6
2 10
2 12
2 13
2 16
2 19
2 20
3 4
3 5
3 6
3 7
3 11
3 13
3 14
3 15
3 16
3 17
3 18
3 19
4 7
4 11
4 12
4 13
4 15
4 16
4 20
5 6
5 13
5 16
6 7
6 11
6 12
6 15
6 19
6 20
7 8
7 10
7 15
7 16
7 17
7 18
7 19
7 20
8 11
8 12
8 15
8 17
9 11
9 13
10 16
10 17
10 18
10 20
11 14
11 16
11 17
11 19
11 20
12 15
12 17
12 20
13 16
13 17
13 18
13 20
14 15
14 17
15 16
15 17
15 19
16 20
17 19
17 20
